(set-info :smt-lib-version 2.6)
(set-info :category "crafted")
(set-logic QF_FF)
(define-sort FF0 () (_ FiniteField 52435875175126190479447740508185965837690552500527637822603658699938581184513))
(declare-fun a () Bool)
(declare-fun f () Bool)
(declare-fun e () Bool)
(declare-fun d () Bool)
(declare-fun g () Bool)
(declare-fun c () Bool)
(declare-fun b () Bool)
(declare-fun h () Bool)
(declare-fun return_n7 () FF0)
(declare-fun mul_n19 () FF0)
(declare-fun b_n6 () FF0)
(declare-fun is_zero_n18 () FF0)
(declare-fun is_zero_n12 () FF0)
(declare-fun is_zero_n15 () FF0)
(declare-fun e_n2 () FF0)
(declare-fun h_n5 () FF0)
(declare-fun is_zero_n24 () FF0)
(declare-fun mul_n10 () FF0)
(declare-fun mul_n26 () FF0)
(declare-fun d_n3 () FF0)
(declare-fun is_zero_inv_n27 () FF0)
(declare-fun mul_n25 () FF0)
(declare-fun mul_n21 () FF0)
(declare-fun a_n0 () FF0)
(declare-fun mul_n22 () FF0)
(declare-fun mul_n9 () FF0)
(declare-fun f_n1 () FF0)
(declare-fun is_zero_inv_n23 () FF0)
(declare-fun g_n8 () FF0)
(declare-fun mul_n20 () FF0)
(declare-fun mul_n13 () FF0)
(declare-fun mul_n16 () FF0)
(declare-fun is_zero_inv_n17 () FF0)
(declare-fun is_zero_inv_n14 () FF0)
(declare-fun c_n4 () FF0)
(declare-fun is_zero_inv_n11 () FF0)
(assert 
  (let ((let0 a))
  (let ((let1 f))
  (let ((let2 (= let1 let0)))
  (let ((let3 e))
  (let ((let4 d))
  (let ((let5 (= let4 let3)))
  (let ((let6 g))
  (let ((let7 c))
  (let ((let8 b))
  (let ((let9 (and let8 let7 let3 let6 let5)))
  (let ((let10 (= let9 let0)))
  (let ((let11 (or let4 let10 let1 let2)))
  (let ((let12 (and let8 let2)))
  (let ((let13 (or let10 let9 let12 let12 let5 let11 let11)))
  (let ((let14 h))
  (let ((let15 (not let14)))
  (let ((let16 (ite let14 let10 let5)))
  (let ((let17 (or let6 let15 let15)))
  (let ((let18 (ite let6 let14 let17)))
  (let ((let19 (and let13 let4 let18 let2)))
  (let ((let20 (=> let3 let0)))
  (let ((let21 (or let17 let20)))
  (let ((let22 (and let21 let8 let19 let19 let9 let16 let15 let11 let13)))
  (let ((let23 return_n7))
  (let ((let24 (as ff1 FF0)))
  (let ((let25 (= let24 let23)))
  (let ((let26 (= let25 let22)))
  (let ((let27 (as ff0 FF0)))
  (let ((let28 (= let27 let23)))
  (let ((let29 (or let25 let28)))
  (let ((let30 (and let29 let26)))
  (let ((let31 (as ff4 FF0)))
  (let ((let32 (as ff52435875175126190479447740508185965837690552500527637822603658699938581184512 FF0)))
  (let ((let33 mul_n19))
  (let ((let34 (ff.mul let33 let32)))
  (let ((let35 b_n6))
  (let ((let36 (ff.mul let35 let32)))
  (let ((let37 is_zero_n18))
  (let ((let38 is_zero_n12))
  (let ((let39 (ff.mul let38 let32)))
  (let ((let40 is_zero_n15))
  (let ((let41 e_n2))
  (let ((let42 h_n5))
  (let ((let43 (as ff52435875175126190479447740508185965837690552500527637822603658699938581184511 FF0)))
  (let ((let44 is_zero_n24))
  (let ((let45 (ff.mul let44 let43)))
  (let ((let46 mul_n10))
  (let ((let47 (ff.mul let46 let32)))
  (let ((let48 mul_n26))
  (let ((let49 d_n3))
  (let ((let50 (ff.add let49 let48 let47 let45 let42 let41 let40 let39 let37 let36 let34 let31)))
  (let ((let51 (ff.mul let23 let50)))
  (let ((let52 (= let51 let27)))
  (let ((let53 (ff.mul let23 let32)))
  (let ((let54 (ff.add let53 let24)))
  (let ((let55 is_zero_inv_n27))
  (let ((let56 (ff.mul let55 let50)))
  (let ((let57 (= let56 let54)))
  (let ((let58 mul_n25))
  (let ((let59 mul_n21))
  (let ((let60 (ff.mul let59 let58)))
  (let ((let61 (= let60 let48)))
  (let ((let62 a_n0))
  (let ((let63 (ff.mul let62 let32)))
  (let ((let64 (ff.add let63 let24)))
  (let ((let65 (ff.mul let41 let64)))
  (let ((let66 (= let65 let58)))
  (let ((let67 (ff.mul let49 let32)))
  (let ((let68 mul_n22))
  (let ((let69 (ff.mul let68 let32)))
  (let ((let70 mul_n9))
  (let ((let71 (ff.mul let70 let32)))
  (let ((let72 f_n1))
  (let ((let73 (ff.add let62 let59 let37 let72 let71 let69 let67 let24)))
  (let ((let74 (ff.mul let44 let73)))
  (let ((let75 (= let74 let27)))
  (let ((let76 (ff.mul let44 let32)))
  (let ((let77 (ff.add let76 let24)))
  (let ((let78 is_zero_inv_n23))
  (let ((let79 (ff.mul let78 let73)))
  (let ((let80 (= let79 let77)))
  (let ((let81 (ff.add let42 let59 let32)))
  (let ((let82 g_n8))
  (let ((let83 (ff.mul let82 let81)))
  (let ((let84 (= let83 let68)))
  (let ((let85 mul_n20))
  (let ((let86 (ff.mul let85 let42)))
  (let ((let87 (= let86 let59)))
  (let ((let88 (ff.mul let82 let32)))
  (let ((let89 (ff.add let88 let24)))
  (let ((let90 (ff.mul let89 let42)))
  (let ((let91 (= let90 let85)))
  (let ((let92 mul_n13))
  (let ((let93 (ff.add let63 let92 let41 let47 let39 let49)))
  (let ((let94 (ff.mul let42 let93)))
  (let ((let95 (= let94 let33)))
  (let ((let96 (ff.mul let40 let43)))
  (let ((let97 (ff.mul let41 let32)))
  (let ((let98 (as ff2 FF0)))
  (let ((let99 mul_n16))
  (let ((let100 (ff.mul let99 let98)))
  (let ((let101 (ff.add let63 let92 let100 let46 let97 let96 let67 let31)))
  (let ((let102 (ff.mul let37 let101)))
  (let ((let103 (= let102 let27)))
  (let ((let104 (ff.mul let37 let32)))
  (let ((let105 (ff.add let104 let24)))
  (let ((let106 is_zero_inv_n17))
  (let ((let107 (ff.mul let106 let101)))
  (let ((let108 (= let107 let105)))
  (let ((let109 (ff.mul let72 let32)))
  (let ((let110 (ff.add let63 let70 let109 let24)))
  (let ((let111 (ff.mul let35 let110)))
  (let ((let112 (= let111 let99)))
  (let ((let113 (ff.mul let62 let43)))
  (let ((let114 (ff.add let113 let92 let39 let70 let49 let98)))
  (let ((let115 (ff.mul let40 let114)))
  (let ((let116 (= let115 let27)))
  (let ((let117 (ff.mul let40 let32)))
  (let ((let118 (ff.add let117 let24)))
  (let ((let119 is_zero_inv_n14))
  (let ((let120 (ff.mul let119 let114)))
  (let ((let121 (= let120 let118)))
  (let ((let122 (ff.mul let38 let98)))
  (let ((let123 (ff.mul let122 let62)))
  (let ((let124 (= let123 let92)))
  (let ((let125 c_n4))
  (let ((let126 (ff.mul let125 let32)))
  (let ((let127 (ff.add let88 let47 let126 let36 let49 let31)))
  (let ((let128 (ff.mul let38 let127)))
  (let ((let129 (= let128 let27)))
  (let ((let130 (ff.add let39 let24)))
  (let ((let131 is_zero_inv_n11))
  (let ((let132 (ff.mul let131 let127)))
  (let ((let133 (= let132 let130)))
  (let ((let134 (ff.mul let49 let98)))
  (let ((let135 (ff.mul let134 let41)))
  (let ((let136 (= let135 let46)))
  (let ((let137 (ff.mul let72 let98)))
  (let ((let138 (ff.mul let137 let62)))
  (let ((let139 (= let138 let70)))
  (let ((let140 (and let139 let136 let133 let129 let124 let121 let116 let112 let108 let103 let95 let91 let87 let84 let80 let75 let66 let61 let57 let52)))
  (let ((let141 (ite let3 let24 let27)))
  (let ((let142 (= let41 let141)))
  (let ((let143 (ite let7 let24 let27)))
  (let ((let144 (= let125 let143)))
  (let ((let145 (ite let6 let24 let27)))
  (let ((let146 (= let82 let145)))
  (let ((let147 (ite let8 let24 let27)))
  (let ((let148 (= let35 let147)))
  (let ((let149 (ite let1 let24 let27)))
  (let ((let150 (= let72 let149)))
  (let ((let151 (ite let14 let24 let27)))
  (let ((let152 (= let42 let151)))
  (let ((let153 (ite let0 let24 let27)))
  (let ((let154 (= let62 let153)))
  (let ((let155 (ite let4 let24 let27)))
  (let ((let156 (= let49 let155)))
  (let ((let157 (and let156 let154 let152 let150 let148 let146 let144 let142)))
  (let ((let158 (and let157 let140)))
  (let ((let159 (=> let158 let30)))
  (let ((let160 (not let159)))
  let160
)))))))))))))))))))))))))))))))))))))))))))))))))))))))))))))))))))))))))))))))))))))))))))))))))))))))))))))))))))))))))))))))))))))))))))))))))))))))))))))))))
)
(check-sat)
